p td 600 1687 
500 13
500 22
500 27
500 30
500 40
500 43
500 69
500 73
500 75
500 81
500 90
500 91
500 92
500 95
500 100
500 116
500 120
500 122
500 126
500 127
500 129
500 138
500 141
500 143
500 147
500 153
500 164
500 167
500 168
500 176
500 177
500 185
500 186
500 187
500 188
500 215
500 220
500 223
500 225
500 226
500 233
500 244
500 253
500 256
500 262
500 263
500 264
500 265
500 273
500 277
500 279
500 280
500 284
500 296
500 301
500 304
500 305
500 309
500 319
500 321
500 327
500 329
500 331
500 339
500 356
500 358
500 360
500 365
500 369
500 371
500 377
500 379
500 382
500 385
500 390
500 391
500 395
500 400
500 410
500 411
500 412
500 417
500 430
500 433
500 439
500 441
500 442
500 444
500 450
500 469
500 476
500 480
500 488
500 492
500 518
500 530
500 540
500 547
500 552
500 556
500 558
500 570
500 573
500 579
500 582
500 587
500 594
99 2
99 8
99 10
99 13
99 14
99 18
99 24
99 38
99 40
99 42
99 43
99 44
99 65
99 71
99 72
99 74
99 78
99 81
99 92
99 93
99 94
99 102
99 113
99 115
99 116
99 123
99 125
99 129
99 142
99 147
99 149
99 150
99 156
99 157
99 160
99 161
99 162
99 163
99 166
99 169
99 193
99 198
99 203
99 212
99 216
99 223
99 225
99 226
99 230
99 231
99 233
99 235
99 238
99 240
99 242
99 257
99 270
99 274
99 277
99 278
99 282
99 290
99 295
99 299
99 300
99 303
99 307
99 315
99 326
99 328
99 340
99 341
99 350
99 359
99 361
99 365
99 373
99 377
99 385
99 388
99 389
99 406
99 408
99 417
99 418
99 420
99 428
99 431
99 435
99 441
99 443
99 444
99 446
99 451
99 457
99 459
99 460
99 462
99 477
99 478
99 486
99 493
99 503
99 504
99 523
99 528
99 550
99 554
99 567
99 574
99 576
99 591
99 592
99 598
99 600
191 2
191 4
191 16
191 17
191 18
191 22
191 30
191 31
191 39
191 48
191 50
191 60
191 61
191 62
191 64
191 70
191 82
191 83
191 89
191 90
191 107
191 114
191 128
191 130
191 133
191 140
191 145
191 160
191 167
191 175
191 176
191 186
191 190
191 193
191 198
191 201
191 202
191 204
191 211
191 213
191 216
191 219
191 225
191 226
191 234
191 241
191 242
191 245
191 250
191 256
191 261
191 269
191 282
191 290
191 293
191 297
191 300
191 302
191 304
191 309
191 310
191 311
191 313
191 325
191 329
191 337
191 342
191 346
191 349
191 357
191 358
191 361
191 364
191 365
191 372
191 374
191 384
191 385
191 395
191 399
191 402
191 404
191 407
191 408
191 413
191 419
191 420
191 422
191 432
191 433
191 440
191 441
191 442
191 450
191 455
191 456
191 461
191 467
191 479
191 486
191 489
191 498
191 504
191 505
191 506
191 509
191 513
191 514
191 515
191 524
191 525
191 533
191 542
191 543
191 544
191 545
191 551
191 559
191 560
191 563
191 570
191 571
191 574
191 586
191 587
191 589
191 595
191 596
191 600
213 2
213 5
213 8
213 17
213 18
213 20
213 31
213 33
213 35
213 36
213 38
213 41
213 43
213 45
213 51
213 60
213 61
213 63
213 65
213 67
213 69
213 71
213 73
213 75
213 77
213 80
213 81
213 85
213 86
213 92
213 94
213 108
213 117
213 126
213 130
213 134
213 142
213 148
213 149
213 157
213 158
213 165
213 169
213 177
213 181
213 183
213 186
213 191
213 197
213 203
213 208
213 212
213 220
213 224
213 227
213 234
213 253
213 258
213 259
213 271
213 278
213 285
213 286
213 304
213 306
213 312
213 320
213 321
213 322
213 329
213 332
213 333
213 334
213 338
213 353
213 356
213 364
213 367
213 370
213 373
213 374
213 382
213 383
213 391
213 394
213 412
213 415
213 420
213 422
213 427
213 434
213 440
213 447
213 448
213 455
213 456
213 466
213 467
213 468
213 473
213 476
213 482
213 497
213 501
213 508
213 511
213 512
213 521
213 523
213 534
213 540
213 541
213 542
213 544
213 552
213 553
213 556
213 559
213 561
213 563
213 567
213 572
213 573
213 587
213 589
213 594
213 599
213 600
586 7
586 16
586 38
586 44
586 46
586 47
586 52
586 54
586 58
586 59
586 64
586 73
586 82
586 89
586 94
586 95
586 100
586 102
586 104
586 105
586 112
586 114
586 118
586 119
586 120
586 121
586 122
586 123
586 131
586 135
586 140
586 141
586 143
586 150
586 182
586 184
586 187
586 188
586 199
586 201
586 205
586 215
586 223
586 224
586 230
586 237
586 238
586 242
586 244
586 252
586 257
586 261
586 265
586 268
586 271
586 282
586 285
586 286
586 287
586 294
586 304
586 305
586 310
586 328
586 329
586 341
586 343
586 350
586 351
586 354
586 364
586 378
586 386
586 392
586 396
586 400
586 404
586 417
586 418
586 423
586 426
586 430
586 433
586 434
586 439
586 442
586 447
586 454
586 458
586 461
586 462
586 467
586 471
586 472
586 474
586 483
586 490
586 495
586 501
586 517
586 520
586 526
586 531
586 533
586 537
586 538
586 546
586 547
586 548
586 552
586 556
586 560
586 567
586 577
586 580
586 584
586 587
122 4
122 31
122 36
122 37
122 39
122 40
122 43
122 47
122 53
122 54
122 56
122 67
122 68
122 71
122 79
122 85
122 90
122 94
122 99
122 101
122 103
122 110
122 113
122 114
122 119
122 126
122 127
122 133
122 141
122 146
122 156
122 167
122 176
122 177
122 179
122 181
122 182
122 183
122 186
122 188
122 195
122 196
122 197
122 201
122 213
122 215
122 237
122 242
122 250
122 251
122 256
122 265
122 272
122 277
122 280
122 283
122 284
122 291
122 292
122 300
122 301
122 303
122 307
122 308
122 310
122 314
122 320
122 331
122 338
122 344
122 349
122 357
122 370
122 374
122 381
122 383
122 386
122 387
122 389
122 391
122 398
122 399
122 404
122 406
122 409
122 415
122 417
122 419
122 422
122 424
122 425
122 426
122 432
122 443
122 450
122 462
122 463
122 469
122 470
122 471
122 474
122 477
122 478
122 503
122 511
122 512
122 516
122 518
122 524
122 527
122 531
122 532
122 533
122 545
122 550
122 552
122 558
122 561
122 567
122 572
122 573
122 574
122 575
122 576
122 578
122 586
122 593
122 595
582 11
582 16
582 18
582 19
582 21
582 27
582 28
582 29
582 31
582 37
582 42
582 49
582 51
582 53
582 66
582 68
582 69
582 70
582 79
582 91
582 95
582 96
582 100
582 103
582 106
582 109
582 113
582 114
582 126
582 132
582 146
582 156
582 162
582 163
582 169
582 173
582 181
582 185
582 189
582 196
582 219
582 224
582 227
582 234
582 237
582 250
582 254
582 275
582 285
582 288
582 289
582 304
582 309
582 313
582 315
582 317
582 318
582 320
582 323
582 324
582 328
582 335
582 337
582 339
582 341
582 348
582 353
582 355
582 360
582 363
582 368
582 369
582 370
582 373
582 376
582 377
582 381
582 395
582 398
582 399
582 408
582 444
582 457
582 460
582 462
582 468
582 469
582 471
582 478
582 485
582 486
582 488
582 489
582 491
582 495
582 497
582 498
582 500
582 509
582 518
582 522
582 532
582 535
582 536
582 538
582 542
582 543
582 544
582 548
582 549
582 554
582 556
582 559
582 560
582 562
582 563
582 568
582 575
582 578
582 581
582 583
582 586
582 587
235 3
235 4
235 11
235 12
235 35
235 49
235 53
235 65
235 69
235 72
235 84
235 94
235 95
235 101
235 102
235 105
235 111
235 125
235 144
235 149
235 152
235 153
235 157
235 158
235 162
235 164
235 166
235 167
235 174
235 180
235 188
235 212
235 215
235 219
235 221
235 234
235 239
235 240
235 242
235 246
235 251
235 256
235 258
235 259
235 261
235 265
235 267
235 270
235 272
235 275
235 279
235 280
235 290
235 291
235 294
235 298
235 301
235 302
235 305
235 307
235 308
235 309
235 312
235 313
235 315
235 322
235 324
235 342
235 345
235 350
235 357
235 361
235 362
235 377
235 384
235 385
235 387
235 394
235 396
235 397
235 400
235 410
235 417
235 418
235 419
235 421
235 424
235 425
235 426
235 427
235 432
235 434
235 438
235 443
235 459
235 470
235 478
235 479
235 490
235 494
235 497
235 499
235 513
235 517
235 535
235 537
235 539
235 541
235 543
235 547
235 558
235 559
235 565
235 566
235 572
235 573
235 578
235 580
235 581
235 582
235 600
520 1
520 6
520 8
520 9
520 11
520 20
520 21
520 31
520 34
520 37
520 61
520 69
520 75
520 79
520 80
520 84
520 87
520 89
520 90
520 91
520 94
520 98
520 100
520 101
520 102
520 104
520 105
520 114
520 115
520 119
520 123
520 144
520 154
520 156
520 175
520 178
520 179
520 181
520 185
520 187
520 192
520 194
520 198
520 199
520 201
520 203
520 204
520 206
520 207
520 213
520 217
520 219
520 220
520 222
520 223
520 228
520 232
520 236
520 242
520 252
520 265
520 276
520 278
520 283
520 284
520 286
520 291
520 297
520 299
520 304
520 305
520 306
520 307
520 311
520 326
520 328
520 331
520 332
520 341
520 351
520 353
520 363
520 365
520 366
520 367
520 373
520 375
520 379
520 383
520 385
520 393
520 394
520 406
520 419
520 424
520 441
520 446
520 452
520 464
520 466
520 468
520 474
520 480
520 481
520 486
520 487
520 490
520 491
520 506
520 512
520 518
520 520
520 522
520 540
520 544
520 548
520 556
520 558
520 561
520 563
520 571
520 574
520 576
520 579
520 583
520 592
520 594
520 596
383 5
383 8
383 27
383 29
383 31
383 32
383 37
383 40
383 48
383 51
383 57
383 62
383 66
383 68
383 70
383 71
383 73
383 75
383 77
383 86
383 104
383 107
383 109
383 116
383 120
383 127
383 130
383 133
383 135
383 138
383 144
383 145
383 147
383 151
383 157
383 162
383 168
383 169
383 182
383 186
383 187
383 200
383 202
383 204
383 205
383 213
383 219
383 239
383 241
383 245
383 257
383 269
383 270
383 272
383 278
383 281
383 282
383 292
383 306
383 319
383 323
383 328
383 331
383 334
383 338
383 339
383 341
383 350
383 351
383 354
383 356
383 360
383 379
383 390
383 391
383 393
383 408
383 409
383 410
383 425
383 430
383 434
383 437
383 438
383 441
383 445
383 448
383 449
383 457
383 458
383 464
383 468
383 474
383 478
383 481
383 484
383 489
383 490
383 492
383 493
383 495
383 498
383 499
383 502
383 520
383 525
383 555
383 560
383 561
383 563
383 566
383 570
383 574
383 577
383 580
383 582
383 583
383 584
383 586
383 596
383 597
383 599
526 4
526 7
526 12
526 17
526 21
526 22
526 27
526 29
526 34
526 43
526 46
526 49
526 50
526 66
526 68
526 85
526 90
526 92
526 99
526 102
526 105
526 107
526 109
526 115
526 116
526 126
526 133
526 136
526 151
526 159
526 163
526 167
526 176
526 180
526 188
526 192
526 197
526 200
526 205
526 212
526 214
526 215
526 222
526 229
526 231
526 239
526 241
526 243
526 257
526 265
526 267
526 278
526 282
526 285
526 286
526 288
526 300
526 302
526 304
526 315
526 316
526 322
526 326
526 337
526 340
526 347
526 348
526 351
526 375
526 376
526 386
526 390
526 394
526 397
526 400
526 402
526 407
526 412
526 414
526 418
526 423
526 427
526 428
526 437
526 441
526 450
526 452
526 453
526 459
526 467
526 468
526 472
526 484
526 489
526 501
526 507
526 526
526 529
526 534
526 539
526 552
526 554
526 555
526 556
526 562
526 563
526 568
526 569
526 571
526 576
526 578
526 581
526 582
526 588
526 594
590 4
590 5
590 10
590 21
590 53
590 62
590 63
590 64
590 65
590 66
590 71
590 75
590 80
590 86
590 88
590 91
590 97
590 98
590 102
590 108
590 120
590 129
590 130
590 132
590 138
590 139
590 147
590 149
590 163
590 164
590 167
590 168
590 170
590 172
590 189
590 193
590 195
590 199
590 206
590 210
590 221
590 223
590 228
590 232
590 234
590 238
590 243
590 248
590 250
590 251
590 253
590 258
590 259
590 268
590 269
590 279
590 280
590 283
590 293
590 295
590 297
590 303
590 304
590 306
590 308
590 312
590 314
590 316
590 317
590 320
590 321
590 325
590 326
590 329
590 335
590 349
590 350
590 355
590 357
590 387
590 389
590 391
590 412
590 414
590 433
590 443
590 446
590 448
590 453
590 455
590 457
590 466
590 477
590 482
590 483
590 484
590 488
590 490
590 491
590 501
590 522
590 543
590 549
590 555
590 560
590 567
590 573
590 581
590 583
590 589
590 595
590 600
567 2
567 3
567 4
567 10
567 12
567 22
567 25
567 34
567 35
567 43
567 46
567 59
567 65
567 68
567 73
567 75
567 78
567 80
567 81
567 84
567 86
567 89
567 92
567 93
567 103
567 104
567 107
567 121
567 123
567 141
567 151
567 152
567 157
567 158
567 161
567 166
567 172
567 175
567 184
567 190
567 191
567 200
567 204
567 206
567 207
567 210
567 213
567 218
567 225
567 233
567 235
567 241
567 243
567 246
567 259
567 267
567 294
567 295
567 296
567 301
567 304
567 305
567 308
567 311
567 313
567 314
567 320
567 325
567 332
567 336
567 354
567 358
567 360
567 363
567 373
567 375
567 377
567 378
567 380
567 385
567 390
567 392
567 399
567 400
567 401
567 402
567 419
567 420
567 427
567 428
567 432
567 443
567 460
567 474
567 476
567 480
567 483
567 486
567 490
567 508
567 511
567 513
567 514
567 518
567 527
567 529
567 531
567 556
567 558
567 562
567 567
567 569
567 571
567 577
567 585
567 586
567 590
567 594
567 597
353 6
353 7
353 8
353 9
353 13
353 15
353 20
353 24
353 30
353 41
353 50
353 55
353 58
353 59
353 64
353 68
353 72
353 80
353 86
353 88
353 97
353 110
353 116
353 120
353 121
353 122
353 123
353 125
353 131
353 133
353 140
353 152
353 154
353 162
353 165
353 167
353 169
353 176
353 177
353 179
353 182
353 183
353 186
353 198
353 201
353 215
353 219
353 221
353 222
353 224
353 225
353 246
353 249
353 253
353 255
353 268
353 270
353 276
353 283
353 288
353 291
353 293
353 299
353 302
353 304
353 305
353 310
353 320
353 328
353 331
353 342
353 347
353 354
353 360
353 361
353 363
353 364
353 365
353 366
353 369
353 372
353 378
353 379
353 389
353 394
353 398
353 401
353 403
353 408
353 409
353 415
353 419
353 428
353 432
353 446
353 447
353 455
353 459
353 463
353 484
353 486
353 492
353 493
353 498
353 526
353 532
353 534
353 537
353 540
353 541
353 552
353 553
353 559
353 560
353 572
353 573
353 580
353 583
353 585
353 586
353 593
353 596
353 598
